analyze/results_flowersnark/final_miplib_symretope_if_extended_generating_set_cpx_v802__settings_final_nosym_norestarts__1__neos-957389.mps.gz.sol
solution status: optimal solution found
objective value:                                  1.5
C0001                                               1 	(obj:0)
C0182                                               1 	(obj:0)
C0248                                               1 	(obj:0)
C0314                                               1 	(obj:0)
C0381                                               1 	(obj:0)
C0586                                               1 	(obj:0)
C0631                                               1 	(obj:0)
C0690                                               1 	(obj:0)
C0776                                               1 	(obj:0)
C0836                                               1 	(obj:0)
C0916                                               1 	(obj:0)
C0972                                               1 	(obj:0)
C1037                                               1 	(obj:0)
C1122                                               1 	(obj:0)
C1182                                               1 	(obj:0)
C1253                                               1 	(obj:0)
C1316                                               1 	(obj:0)
C1393                                               1 	(obj:0)
C1452                                               1 	(obj:0)
C1534                                               1 	(obj:0)
C1607                                               1 	(obj:0)
C1677                                               1 	(obj:0)
C1747                                               1 	(obj:0)
C1818                                               1 	(obj:0)
C1890                                               1 	(obj:0)
C1958                                               1 	(obj:0)
C2016                                               1 	(obj:0)
C2093                                               1 	(obj:0)
C2140                                               1 	(obj:0)
C2207                                               1 	(obj:0)
C2275                                               1 	(obj:0)
C2353                                               1 	(obj:0)
C2429                                               1 	(obj:0)
C2496                                               1 	(obj:0)
C2578                                               1 	(obj:0)
C2626                                               1 	(obj:0)
C2724                                               1 	(obj:0)
C2787                                               1 	(obj:0)
C2855                                               1 	(obj:0)
C2918                                               1 	(obj:0)
C3222                                               1 	(obj:0)
C3287                                               1 	(obj:0)
C3360                                               1 	(obj:0)
C3435                                               1 	(obj:0)
C3696                                               1 	(obj:0)
C3758                                               1 	(obj:0)
C3838                                               1 	(obj:0)
C3897                                               1 	(obj:0)
C3973                                               1 	(obj:0)
C4045                                               1 	(obj:0)
C4117                                               1 	(obj:0)
C4182                                               1 	(obj:0)
C4245                                               1 	(obj:0)
C4320                                               1 	(obj:0)
C4431                                               1 	(obj:0)
C4896                                               1 	(obj:0)
C4962                                               1 	(obj:0)
C5028                                               1 	(obj:0)
C5098                                               1 	(obj:0)
C5166                                               1 	(obj:0)
C5187                                               1 	(obj:0)
C5257                                               1 	(obj:0)
C5369                                               1 	(obj:0)
C5441                                               1 	(obj:0)
C5634                                               1 	(obj:0)
C5759                                               1 	(obj:0)
C5821                                               1 	(obj:0)
C6014                                               1 	(obj:0)
C6032                                               1 	(obj:0.5)
C6033                                               1 	(obj:0.5)
C6036                                               1 	(obj:0.5)
